3
29
49
40	29
1	1	8	7	
2	3	7	16	7	9	15	7	
3	2	6	13	12	5	
4	1	15	6	
5	2	10	5	27	3	
6	1	6	12	
7	3	5	14	6	6	12	4	
8	1	18	3	
9	1	9	4	
10	2	8	6	20	3	
11	1	21	3	
12	1	15	5	
13	1	22	4	
14	1	5	14	
15	3	8	6	23	3	19	2	
16	3	5	15	10	8	8	8	
17	1	20	3	
18	1	6	11	
19	2	8	7	14	5	
20	3	12	5	29	3	13	2	
21	1	14	4	
22	2	7	10	16	4	
23	1	15	5	
24	1	14	4	
25	1	22	3	
26	2	6	14	9	5	
27	3	8	8	21	4	26	2	
28	1	7	7	
29	3	14	5	10	5	15	3	
